rcpsp/heur_output_bi_constraints/Log=2/heurj60.txt
encoding rcpsp/j60.sm/j6028_2.sm nv: 1316084 nc: 2650097 enctime: 19.04
encoding rcpsp/j60.sm/j6028_2.sm nv: 286291 nc: 574846 enctime: 3.44
c File: j6028_2.smnaivebi2.wcnf
c optimal
c final solution cost: 57
c CPU time: 3.201866
s OPTIMUM FOUND

c File: j6028_2.smbi2.wcnf
c optimal
c final solution cost: 57
c CPU time: 0.630873
s OPTIMUM FOUND


rcpsp/heur_output_bi_constraints/Log=2/heurj60.txt
encoding rcpsp/j60.sm/j6028_3.sm nv: 1219680 nc: 2462590 enctime: 18.05
encoding rcpsp/j60.sm/j6028_3.sm nv: 265320 nc: 534108 enctime: 3.26
c File: j6028_3.smnaivebi2.wcnf
c optimal
c final solution cost: 54
c CPU time: 4.207062
s OPTIMUM FOUND

c File: j6028_3.smbi2.wcnf
c optimal
c final solution cost: 54
c CPU time: 1.228766
s OPTIMUM FOUND


rcpsp/heur_output_bi_constraints/Log=2/heurj60.txt
encoding rcpsp/j60.sm/j6028_4.sm nv: 1194204 nc: 2422168 enctime: 17.83
encoding rcpsp/j60.sm/j6028_4.sm nv: 273372 nc: 552600 enctime: 3.30
c File: j6028_4.smnaivebi2.wcnf
c optimal
c final solution cost: 72
c CPU time: 3.356107
s OPTIMUM FOUND

c File: j6028_4.smbi2.wcnf
c optimal
c final solution cost: 72
c CPU time: 0.693184
s OPTIMUM FOUND


rcpsp/heur_output_bi_constraints/Log=2/heurj60.txt
encoding rcpsp/j60.sm/j6028_5.sm nv: 1633440 nc: 3282721 enctime: 23.70
encoding rcpsp/j60.sm/j6028_5.sm nv: 319800 nc: 640756 enctime: 3.91
c File: j6028_5.smnaivebi2.wcnf
c optimal
c final solution cost: 58
c CPU time: 4.001987
s OPTIMUM FOUND

c File: j6028_5.smbi2.wcnf
c optimal
c final solution cost: 58
c CPU time: 0.704602
s OPTIMUM FOUND


rcpsp/heur_output_bi_constraints/Log=2/heurj60.txt
encoding rcpsp/j60.sm/j6028_6.sm nv: 1372385 nc: 2785224 enctime: 20.56
encoding rcpsp/j60.sm/j6028_6.sm nv: 371770 nc: 752622 enctime: 5.20
c File: j6028_6.smnaivebi2.wcnf
c optimal
c final solution cost: 76
c CPU time: 3.617406
s OPTIMUM FOUND

c File: j6028_6.smbi2.wcnf
c optimal
c final solution cost: 76
c CPU time: 0.978020
s OPTIMUM FOUND


rcpsp/heur_output_bi_constraints/Log=2/heurj60.txt
encoding rcpsp/j60.sm/j6028_7.sm nv: 1822842 nc: 3658271 enctime: 26.38
encoding rcpsp/j60.sm/j6028_7.sm nv: 448868 nc: 899028 enctime: 6.20
c File: j6028_7.smnaivebi2.wcnf
c optimal
c final solution cost: 71
c CPU time: 4.201924
s OPTIMUM FOUND

c File: j6028_7.smbi2.wcnf
c optimal
c final solution cost: 71
c CPU time: 0.911201
s OPTIMUM FOUND


rcpsp/heur_output_bi_constraints/Log=2/heurj60.txt
encoding rcpsp/j60.sm/j6028_8.sm nv: 1206400 nc: 2442100 enctime: 17.74
encoding rcpsp/j60.sm/j6028_8.sm nv: 226200 nc: 455960 enctime: 2.81
c File: j6028_8.smnaivebi2.wcnf
c optimal
c final solution cost: 58
c CPU time: 2.901531
s OPTIMUM FOUND

c File: j6028_8.smbi2.wcnf
c optimal
c final solution cost: 58
c CPU time: 0.454947
s OPTIMUM FOUND


rcpsp/heur_output_bi_constraints/Log=2/heurj60.txt
encoding rcpsp/j60.sm/j6028_9.sm nv: 1532940 nc: 3103992 enctime: 22.94
encoding rcpsp/j60.sm/j6028_9.sm nv: 312755 nc: 631213 enctime: 3.89
c File: j6028_9.smnaivebi2.wcnf
c optimal
c final solution cost: 56
c CPU time: 4.764139
s OPTIMUM FOUND

c File: j6028_9.smbi2.wcnf
c optimal
c final solution cost: 56
c CPU time: 0.903460
s OPTIMUM FOUND


rcpsp/heur_output_bi_constraints/Log=2/heurj60.txt
encoding rcpsp/j60.sm/j602_8.sm nv: 161539 nc: 384541 enctime: 3.81
encoding rcpsp/j60.sm/j602_8.sm nv: 28969 nc: 67021 enctime: 0.45
c File: j602_8.smnaivebi2.wcnf
c optimal
c final solution cost: 44
c CPU time: 1.799084
s OPTIMUM FOUND

c File: j602_8.smbi2.wcnf
c optimal
c final solution cost: 44
c CPU time: 0.249565
s OPTIMUM FOUND


rcpsp/heur_output_bi_constraints/Log=2/heurj60.txt
encoding rcpsp/j60.sm/j6029_10.sm nv: 948864 nc: 1967544 enctime: 14.87
encoding rcpsp/j60.sm/j6029_10.sm nv: 443520 nc: 918316 enctime: 5.71
c File: j6029_10.smnaivebi2.wcnf
c timeout
c final solution cost: 127
c CPU time: 62.007831
s UNKNOWN

c File: j6029_10.smbi2.wcnf
c timeout
c final solution cost: 127
c CPU time: 60.773055
s UNKNOWN


rcpsp/heur_output_bi_constraints/Log=2/heurj60.txt
encoding rcpsp/j60.sm/j6029_1.sm nv: 851620 nc: 1751698 enctime: 12.22
encoding rcpsp/j60.sm/j6029_1.sm nv: 364980 nc: 749554 enctime: 4.53
c File: j6029_1.smnaivebi2.wcnf
c timeout
c final solution cost: 108
c CPU time: 61.680220
s UNKNOWN

c File: j6029_1.smbi2.wcnf
c timeout
c final solution cost: 108
c CPU time: 60.606005
s UNKNOWN


rcpsp/heur_output_bi_constraints/Log=2/heurj60.txt
encoding rcpsp/j60.sm/j6029_2.sm nv: 732036 nc: 1519729 enctime: 11.07
encoding rcpsp/j60.sm/j6029_2.sm nv: 386736 nc: 801829 enctime: 4.86
c File: j6029_2.smnaivebi2.wcnf
c timeout
c final solution cost: 132
c CPU time: 61.580173
s UNKNOWN

c File: j6029_2.smbi2.wcnf
c timeout
c final solution cost: 130
c CPU time: 60.693760
s UNKNOWN


rcpsp/heur_output_bi_constraints/Log=2/heurj60.txt
encoding rcpsp/j60.sm/j6029_3.sm nv: 918509 nc: 1904202 enctime: 14.03
encoding rcpsp/j60.sm/j6029_3.sm nv: 431461 nc: 893122 enctime: 5.59
c File: j6029_3.smnaivebi2.wcnf
c timeout
c final solution cost: 128
c CPU time: 61.889346
s UNKNOWN

c File: j6029_3.smbi2.wcnf
c timeout
c final solution cost: 136
c CPU time: 60.760408
s UNKNOWN


rcpsp/heur_output_bi_constraints/Log=2/heurj60.txt
encoding rcpsp/j60.sm/j6029_4.sm nv: 911501 nc: 1898633 enctime: 14.33
encoding rcpsp/j60.sm/j6029_4.sm nv: 462098 nc: 961241 enctime: 5.87
c File: j6029_4.smnaivebi2.wcnf
c timeout
c final solution cost: 135
c CPU time: 61.939707
s UNKNOWN

c File: j6029_4.smbi2.wcnf
c timeout
c final solution cost: 137
c CPU time: 60.826653
s UNKNOWN


rcpsp/heur_output_bi_constraints/Log=2/heurj60.txt
encoding rcpsp/j60.sm/j6029_5.sm nv: 917562 nc: 1892056 enctime: 13.71
encoding rcpsp/j60.sm/j6029_5.sm nv: 423706 nc: 872488 enctime: 5.37
c File: j6029_5.smnaivebi2.wcnf
c timeout
c final solution cost: 109
c CPU time: 61.826979
s UNKNOWN

c File: j6029_5.smbi2.wcnf
c timeout
c final solution cost: 115
c CPU time: 60.728476
s UNKNOWN


rcpsp/heur_output_bi_constraints/Log=2/heurj60.txt
encoding rcpsp/j60.sm/j6029_6.sm nv: 1061355 nc: 2228739 enctime: 17.00
encoding rcpsp/j60.sm/j6029_6.sm nv: 539760 nc: 1131882 enctime: 7.14
c File: j6029_6.smnaivebi2.wcnf
c timeout
c final solution cost: 172
c CPU time: 62.479105
s UNKNOWN

c File: j6029_6.smbi2.wcnf
c timeout
c final solution cost: 165
c CPU time: 61.026151
s UNKNOWN


rcpsp/heur_output_bi_constraints/Log=2/heurj60.txt
encoding rcpsp/j60.sm/j6029_7.sm nv: 773427 nc: 1596662 enctime: 11.06
encoding rcpsp/j60.sm/j6029_7.sm nv: 382959 nc: 789518 enctime: 5.08
c File: j6029_7.smnaivebi2.wcnf
c timeout
c final solution cost: 128
c CPU time: 61.566136
s UNKNOWN

c File: j6029_7.smbi2.wcnf
c timeout
c final solution cost: 126
c CPU time: 60.665078
s UNKNOWN


rcpsp/heur_output_bi_constraints/Log=2/heurj60.txt
encoding rcpsp/j60.sm/j6029_8.sm nv: 1005499 nc: 2063268 enctime: 14.68
encoding rcpsp/j60.sm/j6029_8.sm nv: 414029 nc: 848218 enctime: 5.21
c File: j6029_8.smnaivebi2.wcnf
c timeout
c final solution cost: 102
c CPU time: 61.901905
s UNKNOWN

c File: j6029_8.smbi2.wcnf
c timeout
c CPU time: 60.578917
s UNKNOWN


rcpsp/heur_output_bi_constraints/Log=2/heurj60.txt
encoding rcpsp/j60.sm/j6029_9.sm nv: 796358 nc: 1641566 enctime: 11.42
encoding rcpsp/j60.sm/j6029_9.sm nv: 391694 nc: 806342 enctime: 4.89
c File: j6029_9.smnaivebi2.wcnf
c timeout
c final solution cost: 119
c CPU time: 61.644249
s UNKNOWN

c File: j6029_9.smbi2.wcnf
c timeout
c final solution cost: 120
c CPU time: 60.681858
s UNKNOWN


rcpsp/heur_output_bi_constraints/Log=2/heurj60.txt
encoding rcpsp/j60.sm/j602_9.sm nv: 164793 nc: 393350 enctime: 3.81
encoding rcpsp/j60.sm/j602_9.sm nv: 27384 nc: 63456 enctime: 0.41
c File: j602_9.smnaivebi2.wcnf
c optimal
c final solution cost: 46
c CPU time: 1.010616
s OPTIMUM FOUND

c File: j602_9.smbi2.wcnf
c optimal
c final solution cost: 46
c CPU time: 0.131670
s OPTIMUM FOUND


rcpsp/heur_output_bi_constraints/Log=2/heurj60.txt
encoding rcpsp/j60.sm/j6030_10.sm nv: 1552188 nc: 3164736 enctime: 22.80
encoding rcpsp/j60.sm/j6030_10.sm nv: 436152 nc: 887250 enctime: 5.07
c File: j6030_10.smnaivebi2.wcnf
c timeout
c final solution cost: 84
c CPU time: 62.808969
s UNKNOWN

c File: j6030_10.smbi2.wcnf
c timeout
c final solution cost: 81
c CPU time: 60.675482
s UNKNOWN


rcpsp/heur_output_bi_constraints/Log=2/heurj60.txt
encoding rcpsp/j60.sm/j6030_1.sm nv: 1381650 nc: 2791955 enctime: 19.21
encoding rcpsp/j60.sm/j6030_1.sm nv: 375150 nc: 756515 enctime: 4.36
c File: j6030_1.smnaivebi2.wcnf
c timeout
c final solution cost: 63
c CPU time: 62.387101
s UNKNOWN

c File: j6030_1.smbi2.wcnf
c timeout
c final solution cost: 63
c CPU time: 60.575123
s UNKNOWN


rcpsp/heur_output_bi_constraints/Log=2/heurj60.txt
encoding rcpsp/j60.sm/j6030_2.sm nv: 1464708 nc: 2972846 enctime: 21.16
encoding rcpsp/j60.sm/j6030_2.sm nv: 391776 nc: 793483 enctime: 5.31
c File: j6030_2.smnaivebi2.wcnf
c timeout
c final solution cost: 73
c CPU time: 62.597223
s UNKNOWN

c File: j6030_2.smbi2.wcnf
c timeout
c final solution cost: 68
c CPU time: 60.590100
s UNKNOWN


rcpsp/heur_output_bi_constraints/Log=2/heurj60.txt
encoding rcpsp/j60.sm/j6030_3.sm nv: 1756066 nc: 3577910 enctime: 25.67
encoding rcpsp/j60.sm/j6030_3.sm nv: 484432 nc: 984956 enctime: 5.74
c File: j6030_3.smnaivebi2.wcnf
c timeout
c final solution cost: 75
c CPU time: 63.100572
s UNKNOWN

c File: j6030_3.smbi2.wcnf
c timeout
c final solution cost: 75
c CPU time: 60.730445
s UNKNOWN


rcpsp/heur_output_bi_constraints/Log=2/heurj60.txt
encoding rcpsp/j60.sm/j6030_4.sm nv: 1650506 nc: 3330584 enctime: 22.94
encoding rcpsp/j60.sm/j6030_4.sm nv: 419094 nc: 843960 enctime: 5.66
c File: j6030_4.smnaivebi2.wcnf
c optimal
c final solution cost: 71
c CPU time: 4.524912
s OPTIMUM FOUND

c File: j6030_4.smbi2.wcnf
c optimal
c final solution cost: 71
c CPU time: 1.065284
s OPTIMUM FOUND


rcpsp/heur_output_bi_constraints/Log=2/heurj60.txt
encoding rcpsp/j60.sm/j6030_5.sm nv: 1748292 nc: 3550300 enctime: 25.36
encoding rcpsp/j60.sm/j6030_5.sm nv: 403452 nc: 817220 enctime: 4.80
c File: j6030_5.smnaivebi2.wcnf
c optimal
c final solution cost: 72
c CPU time: 21.669736
s OPTIMUM FOUND

c File: j6030_5.smbi2.wcnf
c optimal
c final solution cost: 72
c CPU time: 9.377762
s OPTIMUM FOUND


rcpsp/heur_output_bi_constraints/Log=2/heurj60.txt
encoding rcpsp/j60.sm/j6030_6.sm nv: 1572600 nc: 3168672 enctime: 21.98
encoding rcpsp/j60.sm/j6030_6.sm nv: 424602 nc: 854061 enctime: 5.73
c File: j6030_6.smnaivebi2.wcnf
c optimal
c final solution cost: 66
c CPU time: 4.222188
s OPTIMUM FOUND

c File: j6030_6.smbi2.wcnf
c optimal
c final solution cost: 66
c CPU time: 1.182850
s OPTIMUM FOUND


rcpsp/heur_output_bi_constraints/Log=2/heurj60.txt
encoding rcpsp/j60.sm/j6030_7.sm nv: 1520428 nc: 3102128 enctime: 22.50
encoding rcpsp/j60.sm/j6030_7.sm nv: 434408 nc: 884328 enctime: 5.82
c File: j6030_7.smnaivebi2.wcnf
c timeout
c final solution cost: 81
c CPU time: 62.819160
s UNKNOWN

c File: j6030_7.smbi2.wcnf
c timeout
c final solution cost: 81
c CPU time: 60.688396
s UNKNOWN


rcpsp/heur_output_bi_constraints/Log=2/heurj60.txt
encoding rcpsp/j60.sm/j6030_8.sm nv: 1648717 nc: 3326033 enctime: 24.13
encoding rcpsp/j60.sm/j6030_8.sm nv: 353668 nc: 711782 enctime: 4.44
c File: j6030_8.smnaivebi2.wcnf
c timeout
c final solution cost: 55
c CPU time: 62.852245
s UNKNOWN

c File: j6030_8.smbi2.wcnf
c timeout
c final solution cost: 53
c CPU time: 60.541558
s UNKNOWN


rcpsp/heur_output_bi_constraints/Log=2/heurj60.txt
encoding rcpsp/j60.sm/j6030_9.sm nv: 1434945 nc: 2930766 enctime: 21.90
encoding rcpsp/j60.sm/j6030_9.sm nv: 439020 nc: 894816 enctime: 5.25
c File: j6030_9.smnaivebi2.wcnf
c timeout
c final solution cost: 85
c CPU time: 62.709241
s UNKNOWN

c File: j6030_9.smbi2.wcnf
c timeout
c final solution cost: 85
c CPU time: 60.697792
s UNKNOWN


rcpsp/heur_output_bi_constraints/Log=2/heurj60.txt
encoding rcpsp/j60.sm/j603_10.sm nv: 159460 nc: 384310 enctime: 3.70
encoding rcpsp/j60.sm/j603_10.sm nv: 32368 nc: 76192 enctime: 0.48
c File: j603_10.smnaivebi2.wcnf
c optimal
c final solution cost: 52
c CPU time: 0.888426
s OPTIMUM FOUND

c File: j603_10.smbi2.wcnf
c optimal
c final solution cost: 52
c CPU time: 0.081693
s OPTIMUM FOUND


rcpsp/heur_output_bi_constraints/Log=2/heurj60.txt
encoding rcpsp/j60.sm/j6031_10.sm nv: 1934730 nc: 3890918 enctime: 26.96
encoding rcpsp/j60.sm/j6031_10.sm nv: 380804 nc: 764091 enctime: 4.65
c File: j6031_10.smnaivebi2.wcnf
c optimal
c final solution cost: 48
c CPU time: 5.257767
s OPTIMUM FOUND

c File: j6031_10.smbi2.wcnf
c optimal
c final solution cost: 48
c CPU time: 0.994465
s OPTIMUM FOUND


rcpsp/heur_output_bi_constraints/Log=2/heurj60.txt
encoding rcpsp/j60.sm/j6031_1.sm nv: 1957956 nc: 3929194 enctime: 27.30
encoding rcpsp/j60.sm/j6031_1.sm nv: 419562 nc: 840306 enctime: 5.01
c File: j6031_1.smnaivebi2.wcnf
c optimal
c final solution cost: 62
c CPU time: 5.165967
s OPTIMUM FOUND

c File: j6031_1.smbi2.wcnf
c optimal
c final solution cost: 62
c CPU time: 1.155146
s OPTIMUM FOUND


rcpsp/heur_output_bi_constraints/Log=2/heurj60.txt
encoding rcpsp/j60.sm/j6031_2.sm nv: 1851171 nc: 3736928 enctime: 26.07
encoding rcpsp/j60.sm/j6031_2.sm nv: 426363 nc: 858800 enctime: 5.82
c File: j6031_2.smnaivebi2.wcnf
c timeout
c final solution cost: 57
c CPU time: 63.180842
s UNKNOWN

c File: j6031_2.smbi2.wcnf
c timeout
c final solution cost: 57
c CPU time: 60.629656
s UNKNOWN


rcpsp/heur_output_bi_constraints/Log=2/heurj60.txt
encoding rcpsp/j60.sm/j6031_3.sm nv: 2053634 nc: 4129675 enctime: 29.03
encoding rcpsp/j60.sm/j6031_3.sm nv: 413270 nc: 829339 enctime: 5.03
c File: j6031_3.smnaivebi2.wcnf
c optimal
c final solution cost: 58
c CPU time: 6.472090
s OPTIMUM FOUND

c File: j6031_3.smbi2.wcnf
c optimal
c final solution cost: 58
c CPU time: 1.599653
s OPTIMUM FOUND


rcpsp/heur_output_bi_constraints/Log=2/heurj60.txt
encoding rcpsp/j60.sm/j6031_4.sm nv: 1662186 nc: 3354493 enctime: 24.00
encoding rcpsp/j60.sm/j6031_4.sm nv: 386798 nc: 778829 enctime: 4.63
c File: j6031_4.smnaivebi2.wcnf
c optimal
c final solution cost: 51
c CPU time: 27.084171
s OPTIMUM FOUND

c File: j6031_4.smbi2.wcnf
c optimal
c final solution cost: 51
c CPU time: 16.252225
s OPTIMUM FOUND


rcpsp/heur_output_bi_constraints/Log=2/heurj60.txt
encoding rcpsp/j60.sm/j6031_5.sm nv: 2384524 nc: 4787196 enctime: 33.71
encoding rcpsp/j60.sm/j6031_5.sm nv: 453852 nc: 909236 enctime: 5.65
c File: j6031_5.smnaivebi2.wcnf
c optimal
c final solution cost: 53
c CPU time: 6.754196
s OPTIMUM FOUND

c File: j6031_5.smbi2.wcnf
c optimal
c final solution cost: 53
c CPU time: 1.253792
s OPTIMUM FOUND


rcpsp/heur_output_bi_constraints/Log=2/heurj60.txt
encoding rcpsp/j60.sm/j6031_6.sm nv: 2472873 nc: 4992097 enctime: 36.49
encoding rcpsp/j60.sm/j6031_6.sm nv: 451347 nc: 908659 enctime: 5.65
c File: j6031_6.smnaivebi2.wcnf
c optimal
c final solution cost: 60
c CPU time: 15.633963
s OPTIMUM FOUND

c File: j6031_6.smbi2.wcnf
c optimal
c final solution cost: 60
c CPU time: 3.181338
s OPTIMUM FOUND


rcpsp/heur_output_bi_constraints/Log=2/heurj60.txt
encoding rcpsp/j60.sm/j6031_7.sm nv: 1621120 nc: 3274228 enctime: 23.37
encoding rcpsp/j60.sm/j6031_7.sm nv: 390082 nc: 786151 enctime: 5.43
c File: j6031_7.smnaivebi2.wcnf
c timeout
c final solution cost: 57
c CPU time: 62.797754
s UNKNOWN

c File: j6031_7.smbi2.wcnf
c timeout
c final solution cost: 56
c CPU time: 60.597977
s UNKNOWN


rcpsp/heur_output_bi_constraints/Log=2/heurj60.txt
encoding rcpsp/j60.sm/j6031_8.sm nv: 1957200 nc: 3946290 enctime: 28.86
encoding rcpsp/j60.sm/j6031_8.sm nv: 460175 nc: 926026 enctime: 5.65
c File: j6031_8.smnaivebi2.wcnf
c optimal
c final solution cost: 60
c CPU time: 5.661292
s OPTIMUM FOUND

c File: j6031_8.smbi2.wcnf
c optimal
c final solution cost: 60
c CPU time: 3.792207
s OPTIMUM FOUND


